CUST_NO   XCOORD  YCOORD    READY_TIME  DUE_DATE  SERVICE_TIME    VEHICLE_NUMBER
 
    0      35         35          0        230          0               10
    1      41         49         15        204         10
    2      35         17         18        202         10
    3      55         45         54        187         10
    4      55         20        138        169         10
    5      15         30         20        199         10
    6      25         30         76        131         10
    7      20         50         21        170         10
    8      10         43         87        112         10
    9      55         60         88        115         10
   10      30         60        107        150         10
   11      20         65         57         86         10
   12      50         35         15        192         10
   13      30         25        147        180         10
   14      15         10         32        187         10
   15      30          5         50         81         10
   16      10         20         29        139         10
   17       5         30        124        189         10
   18      20         40         47        136         10
   19      15         60         32        146         10
   20      45         65         79        182         10
   21      45         20         18        195         10
   22      45         10         76        127         10
   23      55          5         58         87         10
   24      65         35         58        190         10
   25      65         20        153        186         10
   26      45         30         58        208         10
   27      35         40          8         75         10
   28      41         37          6        136         10
   29      64         42         29        150         10
   30      40         60         49        102         10
